26386.7
0 97 80 12 62 27 66 94 85 45 41 68 93 90 67 73 26 65 51 91 63 13 31 82 64 55 53 32 36 9 23 15 43 6 83 56 33 7 1 3 92 38 99 4 71 72 37 86 21 14 28 30 96 5 49 75 18 11 54 16 89 88 19 2 22 34 42 60 52 77 40 46 48 57 78 81 8 25 47 61 20 76 10 84 58 74 95 39 50 44 70 35 98 79 24 29 69 87 17 59 
